12
0 30 90 59 77 92 87 19 32 66 76 73 
10 0 79 74 85 82 63 68 39 39 17 40 
71 98 0 55 87 8 28 86 9 14 82 78 
11 34 70 0 38 98 23 24 28 73 88 20 
36 10 43 94 0 29 5 84 52 43 20 90 
54 55 34 13 20 0 84 38 5 75 23 39 
62 73 90 26 84 71 0 36 51 5 3 92 
4 89 79 2 62 13 27 0 82 69 31 18 
9 18 13 52 41 59 16 58 0 24 19 6 
14 14 95 79 69 66 36 33 46 0 7 65 
90 85 36 7 11 32 18 67 50 49 0 1 
76 87 100 16 15 10 58 93 11 7 38 0 
